id: 1183
name: neos-933638
group: miplib2010
method: 2

Gurobi 7.0.2 (linux64, Matlab) logging started Mon Mar 26 10:15:43 2018


Gurobi 7.0.2 (linux64) logging started Mon Mar 26 10:15:43 2018

Optimize a model with 13658 rows, 32417 columns and 187173 nonzeros
Coefficient statistics:
  Matrix range     [1e+00, 1e+00]
  Objective range  [1e+00, 1e+03]
  Bounds range     [1e+00, 1e+00]
  RHS range        [1e+00, 1e+01]
Presolve removed 4016 rows and 23530 columns
Presolve time: 0.02s
Presolved: 9642 rows, 8887 columns, 54484 nonzeros

Ordering time: 0.10s

Barrier statistics:
 AA' NZ     : 1.376e+05
 Factor NZ  : 1.185e+06 (roughly 17 MBytes of memory)
 Factor Ops : 3.714e+08 (less than 1 second per iteration)
 Threads    : 4

                  Objective                Residual
Iter       Primal          Dual         Primal    Dual     Compl     Time
   0   3.74756396e+05  0.00000000e+00  6.30e+01 1.00e+00  2.56e+01     0s
   1   6.34313656e+04 -4.09786104e+03  7.55e+00 1.90e+00  4.95e+00     0s
   2   7.04911135e+03 -6.01949459e+03  9.91e-01 2.27e-13  6.37e-01     0s
   3   1.55035887e+03 -4.33651951e+03  1.26e-01 2.27e-13  2.41e-01     0s
   4   4.74407300e+02 -1.69092309e+02  6.80e-03 3.41e-13  2.43e-02     0s
   5   3.71168679e+02  1.56886582e+02  2.10e-03 2.27e-13  8.08e-03     0s
   6   3.05911594e+02  2.28717429e+02  6.53e-04 2.27e-13  2.91e-03     0s
   7   2.89151739e+02  2.54796046e+02  2.91e-04 2.27e-13  1.29e-03     0s
   8   2.81812057e+02  2.62770260e+02  1.32e-04 1.14e-13  7.17e-04     0s
   9   2.77600789e+02  2.74607223e+02  3.72e-05 2.27e-13  1.13e-04     0s
  10   2.76014608e+02  2.75937499e+02  2.50e-07 3.41e-13  2.90e-06     0s
  11   2.76000015e+02  2.75999938e+02  0.00e+00 3.41e-13  2.90e-09     0s
  12   2.76000000e+02  2.76000000e+02  1.38e-13 2.27e-13  2.90e-12     0s

Barrier solved model in 12 iterations and 0.38 seconds
Optimal objective 2.76000000e+02

Crossover log...

       0 DPushes remaining with DInf 0.0000000e+00                 0s

    3761 PPushes remaining with PInf 0.0000000e+00                 0s
       0 PPushes remaining with PInf 0.0000000e+00                 1s

  Push phase complete: Pinf 0.0000000e+00, Dinf 6.7033323e-11      1s

Iteration    Objective       Primal Inf.    Dual Inf.      Time
    4390    2.7600000e+02   0.000000e+00   0.000000e+00      1s
    4390    2.7600000e+02   0.000000e+00   0.000000e+00      1s

Solved in 4390 iterations and 0.63 seconds
Optimal objective  2.760000000e+02
status: OPTIMAL
